/*********************************************
 * OPL 22.1.1.0 Data
 * Author: ayman
 * Creation Date: 29 nov. 2024 at 09:16:55
 *********************************************/
nbObjet = 5;
poidsMax = 100;
valeur = [6, 10, 5, 4, 3];
poids = [56, 62, 32, 48, 25];